20
10
574571
0
0
46 41 41 46 53 52 67 57 41 31
1
0
44 40 44 46 50 53 64 55 41 34
2
0
46 45 38 47 49 52 68 53 44 34
3
0
44 44 44 52 52 53 65 57 44 36
4
0
46 44 43 46 50 53 67 57 45 34
5
0
44 43 44 50 50 54 65 58 47 32
6
0
45 43 42 47 50 54 62 58 43 34
7
0
47 45 45 46 52 54 64 59 42 35
8
0
43 42 42 49 51 56 63 54 39 32
9
0
45 40 42 47 52 54 67 56 41 36
10
0
43 41 40 49 57 53 67 57 43 33
11
0
44 41 42 43 54 54 71 57 44 32
12
0
41 40 40 47 52 55 67 59 42 32
13
0
41 44 41 52 50 53 60 60 41 33
14
0
44 45 44 46 52 56 63 57 43 34
15
0
44 44 40 47 53 51 65 55 41 32
16
0
46 43 45 48 50 51 65 55 42 34
17
0
45 43 40 45 53 53 68 56 44 35
18
0
40 41 39 43 52 52 64 57 39 34
19
0
45 41 39 45 53 56 65 57 39 33
